++ 0 Motivation: CT18Z global fit, starting from CT14HERA2
'0 Changes: pib23aT, ifscale=230
'1 Run ID:                   :'   'i2TAn3m248'   'i2TAn3m248'
'0        1         2         3         4         5         6         7         8'
'12345678901234567890123456789012345678901234567890123456789012345678901234567890'
++ 1:   6     ++++++       QCD Evolution Parameters  ++++++
'Ipk    iOAlf  Fswitch   iFsch   iOHrd   iOEvl   Nflv   Iset'
 22       3       0        0       3       3      5      10
'Xmn    Nx    Qmn   Qmx     NQ  Imass'
1D-9    150  1.295  1D+5    24   0
'Alfa   @  Qalfa      Mc      Mb      Mt     (Minuit #:Alfa      Mc      Mb      Mt)'
 ALPHAS  91.190   1.300   4.750  172.000               31      32      33       0
++ 2:   2     ++++++++     Control switches  ++++++
'1 Lfit  LErr    LPrt    Loutput(sho|plt|pds|tmp|dta)'
  30    0100111   00      11111
++ 3:   7     ++++++++                           Theoretical Parameters  ++++++
  99   1  230    1.000     0.000     0.000  DIS: Kfac  Ldtadj  iSchm  ScalFc  xxx  xxx
  99   0   0     0.000     0.000     0.000  VBP: Kfac  Lxx  Lxx  IRscl  qscl  xxx
  99   0   0     0.500     0.000     0.000  Dph: Kfac  LscIO  Lxx  XMULT  xxx  xxx
  99   0   0     1.000     0.000     0.000  Hhk: Kfac
   2   1 50510   1.000     7.000     0.000  Jet: Kfac  Lxx  Lxx  Amu  Dymx xxx
  99   828101  0103210    1d-3   1.5   1.6  Vpt: Kfac V1 V2 V3 rerr bmax Q0in
  99   0   0     0.000     0.000     0.000  Dmu: Kfac  Emc  Ior  xxx  xxx  xxx
++ 4:  8      ++++++                             Kinematic Cuts on Data  ++++++
'1 DIS: QCUT, XCUT, WCUT QMAX:'    2.000     0.000     3.55249  3000.000
'2 VBP: Qcut  ptlo  pthi QMAX:'    2.000    40.000   150.000  3000.000
'3 DPh: ptmin ptmax y3   xxx :'    4.000   150.000   -10.000    88.000
'4 Hhk: xxx   xxx   xxx  xxx :'   88.000    88.000    88.000    88.000
'5 Jet: xxx   xxx   xxx  xxx :'   88.000    88.000    88.000    88.000
'6 Vpt: xxx   xxx   xxx  xxx :'   88.000    88.000    88.000    88.000
'7 Dmu: xxx   xxx   xxx  xxx :'   88.000    88.000    88.000    88.000
'Chi^2 Ctrl: cx fmx fmn chimn:'     0.010  1280.500  1230.050   4.37E+03
++ 5:   38    data sets                           Choice of Expt Data Sets ++++++
'1 datalist Pathname&filename:'  '../../da/data-Sync-Alim/'   'Data2024' '../../ApplGridtables/'  '../../fastNLOtables/'
'ExpID   Norm   Fac  ksys (|LR *MC)/Anor FacNorm LswEx FacNorm4 LTheo cut1l cut1h cut2l cut2h cut3l cut3h cutlob NmDta'
 2 45       0  1.0   0
       1.0000  1.0   0
 2 46       0  1.0   0
       1.0000  1.0   0
 2 49       0  1.0   0
       1.0000  1.0   0
 2 50       0  1.0   0
       1.0000  1.0   0
 2 53       0  1.0  99 | 5 1*100
       1.0000  1.0   0
 5 42       0  1.0  99 | 5 1*24
       1.0000  1.0   0
 5 44       0  1.0  99 | 5 1*73
       1.0000  1.0   0
 5 45       0  1.0  99 | 5 1*27
       1.0000  1.0   0
 5 73       0  1.0   0
       1.0000  1.0   0
 5 80       0  1.0   0
       1.0000  1.0   0
 1 60       0  1.0   0
       1.0000  1.0   0
 1 01      71  1.0   0
       0.9657  0.1   0   1.0
 1 02      71  1.0   0
       0.9657  1.0   0
 1 04     999  1.0   0
       1.0000  1.0   0
 1  8      72  1.0   0
       1.0141  0.1   0   1.0
 1  9      72  1.0   0
       1.0141  1.0   0
 1 10      73  1.0   0
       1.0298  0.1   0   1.0
 1 11      73  1.0   0
       1.0298  1.0   0
 1 24       0  1.0   0
       1.0000  1.0   0
 1 25       0  1.0   0
       1.0000  1.0   0
 1 26       0  1.0   0
       1.0000  1.0   0
 1 27       0  1.0   0
       1.0000  1.0   0
 1 45       0  1.0   0
       1.0000  1.0   0
 1 47       0  1.0   0
       1.0000  1.0   0
 1 69       0  1.0   0
       1.0000  1.0   0
 2  1       0  1.0   0
       1.0000  1.0   0   0.0   11  8.8000E+01  8.8000E+01  8.8000E+01  8.8000E+01  8.8000E+01  8.8000E+01    88  e605_Yao
 2  3     999  1.0   0
       1.0000  1.0   0   0.0   11  8.8000E+01  8.8000E+01  8.8000E+01  8.8000E+01  8.8000E+01  8.8000E+01    88  e866f_Yao
 2  4       0  1.0   0
       1.0000  1.0   0   0.0   11  8.8000E+01  8.8000E+01  8.8000E+01  8.8000E+01  8.8000E+01  8.8000E+01    88  e866ppxf_Yao
 2 25     999  1.0   0
       1.0000  1.0   0   0.0  111  8.8000E+01  8.8000E+01  8.8000E+01  8.8000E+01  8.8000E+01  8.8000E+01    88  cdfLasy_up
 2 27     999  1.0   0
       1.0000  1.0   0   0.0  111  8.8000E+01  8.8000E+01  8.8000E+01  8.8000E+01  8.8000E+01  8.8000E+01    88  cdfLasy2_up
 2 34     999  1.0   0
       1.0000  1.0   0   0.0  111  8.8000E+01  8.8000E+01  8.8000E+01  8.8000E+01  8.8000E+01  8.8000E+01    88  d02Masy1_up
 2 60       0  1.0   0
       1.0000  1.0   0   0.0  121  8.8000E+01  8.8000E+01  8.8000E+01  8.8000E+01  8.8000E+01  8.8000E+01    88  ZyD02a_up
 2 61       0  1.0   0
       1.0000  1.0   0   0.0  111  8.8000E+01  8.8000E+01  8.8000E+01  8.8000E+01  8.8000E+01  8.8000E+01    88  ZyCDF2_up
 2 66     999  1.0   0
       1.0000  1.0   0   0.0  111  8.8000E+01  8.8000E+01  8.8000E+01  8.8000E+01  8.8000E+01  8.8000E+01    88  CMS7Masy2_up
 2 67       0  1.0   0
       1.0000  1.0   0   0.0  111  8.8000E+01  8.8000E+01  8.8000E+01  8.8000E+01  8.8000E+01  8.8000E+01    88  CMS7Easy_up
 2 81     999  1.0   0
       1.0000  1.0   0   0.0  111  8.8000E+01  8.8000E+01  8.8000E+01  8.8000E+01  8.8000E+01  8.8000E+01    88  d02Easy5_up
 5  4       0  1.0   0
       1.0000  1.0   0
 5 14       0  1.0   0
       1.0000  1.0   0
++ 6: 2 -4 12  2 :=> Nfval Nfsea Nshp Ifun  ++++    Parton Distr. Parameters   ++++++
'             MomFrac    B0         A1        A2        A3        A4        A5     '
   (LBP)       ---------------------   Switches   --------------------
' 2dvl'        888        888         11   12   23   24   25    0    0   0   0   0   0   0
' 1uvl'        888        888         11   12   13   14   15    0    0   0   0   0   0   0
' 0glu'        888         10          1    2    3    4    0    0    0   0   0   0   0   0
'-1dmu'        888        888         51   52    0   54   55   56   57  41  42  43  44  45
'-2dpu'        888        888         51   52    0   54   55   56   57  41  42  43  44  45
'-3str'        888         60         51   62    0   64   64   65   65   0   0   0   0   0
'-4chm'        888          0          0    0    0    0    0    0    0   0   0   0   0   0
   (BP) -gfun-  --------------------  Coefficients  --------------------
' 2dvl'   981  0.1353448  0.0000000   0.79665   3.02614   2.85405   1.85951   2.83408   0.00000   0.00000   0.00000   0.00000   0.00000   0.00000   0.00000
' 1uvl'   981  0.3252193  0.0000000   0.79665   3.02614   1.66010  -0.12800   1.72408   0.00000   0.00000   0.00000   0.00000   0.00000   0.00000   0.00000
' 0glu'   848  0.3775599  0.0000000   0.55394   3.23649   3.03964  -1.72527   0.00000   0.00000   0.00000   0.00000   0.00000   0.00000   0.00000   0.00000
'-1dmu'   219  0.0000000  0.0000000  -0.02710   7.69150   4.00000   0.27747   0.69730   0.52194   0.74129   0.66120   0.08465   0.96680   0.22909   0.75193
'-2dpu'   218  0.1241419  0.0000000  -0.02710   7.69150   4.00000   0.27747   0.69730   0.52194   0.74129   0.66120   0.08465   0.96680   0.22909   0.75193
'-3str'   220  0.0377341  0.6993153  -0.02710   9.26458   4.00000   0.79248   0.79248   0.20161   0.20161   1.00000   0.00000   0.00000   0.00000   0.00000
'-4chm'    60  0.0000000  0.0000000   0.00000   0.00000   0.00000   0.00000   0.00000   0.00000   0.00000   0.00000   0.00000   0.00000   0.00000   0.00000
++ 7: 5  7  :=>  row column     +++ Other process dependent parameters  +++
'0           C1       C2        .... CN'
   (LCP) ---------------------   Switches   --------------------
' CPa '       0        0         0         0         0         0         0
' CPb '       0        0         0         0         0         0         0
' CPc '       0        0         0         0         0         0         0
' CPd '       0        0         0         0         0         0         0
' CPe '       0        0         0         0         0         0         0
   (CP) ----------------------  Coefficients ---------------------
' 1CP '   0.01000   0.30000   0.30000   0.80000   1.00000   0.00000   0.00000
' 2CP '   0.00000   0.00000   0.00000   0.00000   0.00000   0.00000   0.00000
' 3CP '   0.00000   0.00000   0.00000   0.00000   1.00000  16.00000   0.00000
' 4CP '   0.00000   0.00000   0.00000   0.00000   0.00000   0.00000   0.00000
' 5CP '   0.00000   0.00000   0.00000   0.00000   0.00000   0.00000   0.00000
'0        1         2         3         4         5         6         7         8'
'12345678901234567890123456789012345678901234567890123456789012345678901234567890'
++ 8:  4                        Lagrange Multiplier Calculation Inputs  ++++++
  16  2   :  2-digit_Phys_Quantity_key  and  #_of_input lines
                               Description: ssbr/udbr
  1 integer indices:  dummy                                     : Lm(0,   1)
                      1                                         : Lm(1.., 1)
  4 real variables :  LMvalue  r_high  r_low    testX           : dM(0, 1,1)
                     10      2d0     .2       1d-8            : dM(1.., 1,1)
 16  2   :  2-digit_Phys_Quantity_key  and  #_of_input lines
                               Description: ssbr/udbr
  1 integer indices:  dummy                                     : Lm(0,   1)
                      1                                         : Lm(1.., 1)
  4 real variables :  LMvalue  r_high  r_low    testX           : dM(0, 1,1)
                    10     1.8d0     .4       1d-5              : dM(1.., 1,1)
20  2   :  2-digit_Phys_Quantity_key  and  #_of_input lines
                               Description: sum of squares of shape parameters
  1 integer indices:  dummy                                     : Lm(0,   1)
                      1                                         : Lm(1.., 1)
  1 real variables :  LMvalue                                   : dM(0, 1,1)
                     0.010                                      : dM(1,1,1)
 22  2   :  2-digit_Phys_Quantity_key  and  #_of_input data lines
                               Description: penalties on systematic error shifts
  4 number of integer variables = 2*(number of shifts penalized)
            504 25   514 23              ID1 par1  ID2 par2 ...
  2 number of real parameters = (number of shifts penalized)
             0.5       0.5    weights that multiply shift**4
++ 9:  =====                                     ======
END OF FITINP FILE; BEGINNING OF MINUIT CARDS
FIRST LINE OF MINUIT CARDS
       1    'A1glu'    0.00000   0.1
       2    'A2glu'    0.00000   0.1
       3    'A3glu'    0.00000   0.1
       4    'A4glu'    0.00000   0.1
      10    'gluM'     0.00000   0.1
      11    'A1uvl'    0.00000   0.1
      12    'A2uvl'    0.00000   0.1
      13    'A3uvl'    0.00000   0.1
      14    'A4uvl'    0.00000   0.1
      15    'A5uvl'    0.00000   0.1
      23    'A3dvl'    0.00000   0.1
      24    'A4dvl'    0.00000   0.1
      25    'A5dvl'    0.00000   0.1
      31    'alpha'    0.00000   0.1
      32    'mc'       0.00000   0.1
      33    'mb'       0.00000   0.1
      41    'A1dou'    0.00000   0.1
      42    'A2dou'    0.00000   0.1
      43    'A3dou'    0.00000   0.1
      44    'A4dou'    0.00000   0.1
      45    'A5dou'    0.00000   0.1
      51    'A1dpu'    0.00000   0.1
      52    'A2dpu'    0.00000   0.1
      54    'A4dpu'    0.00000   0.1
      55    'A5dpu'    0.00000   0.1
      56    'A6dpu'    0.00000   0.1
      57    'A7dpu'    0.00000   0.1
      60    'strM'     0.00000   0.1
      62    'A2str'    0.00000   0.1
      64    'A4str'    0.00000   0.1
      65    'A5str'    0.00000   0.1
      71    'N71'      0.00000   0.1
      72    'N72'      0.00000   0.1
      73    'N73'      0.00000   0.1

set print     2
set errdef    0.05
fix 31 32 33
migrad 3000
return
